50

 0   1   2   3   4   1   2   3   4   5   2   3   4   5   6   3   4   5   6   7   4   5   6   7   8   5   6   7   8   9   6   7   8   9  10   7   8   9  10  11   8   9  10  11  12   9  10  11  12  13  
 1   0   1   2   3   2   1   2   3   4   3   2   3   4   5   4   3   4   5   6   5   4   5   6   7   6   5   6   7   8   7   6   7   8   9   8   7   8   9  10   9   8   9  10  11  10   9  10  11  12  
 2   1   0   1   2   3   2   1   2   3   4   3   2   3   4   5   4   3   4   5   6   5   4   5   6   7   6   5   6   7   8   7   6   7   8   9   8   7   8   9  10   9   8   9  10  11  10   9  10  11  
 3   2   1   0   1   4   3   2   1   2   5   4   3   2   3   6   5   4   3   4   7   6   5   4   5   8   7   6   5   6   9   8   7   6   7  10   9   8   7   8  11  10   9   8   9  12  11  10   9  10  
 4   3   2   1   0   5   4   3   2   1   6   5   4   3   2   7   6   5   4   3   8   7   6   5   4   9   8   7   6   5  10   9   8   7   6  11  10   9   8   7  12  11  10   9   8  13  12  11  10   9  
 1   2   3   4   5   0   1   2   3   4   1   2   3   4   5   2   3   4   5   6   3   4   5   6   7   4   5   6   7   8   5   6   7   8   9   6   7   8   9  10   7   8   9  10  11   8   9  10  11  12  
 2   1   2   3   4   1   0   1   2   3   2   1   2   3   4   3   2   3   4   5   4   3   4   5   6   5   4   5   6   7   6   5   6   7   8   7   6   7   8   9   8   7   8   9  10   9   8   9  10  11  
 3   2   1   2   3   2   1   0   1   2   3   2   1   2   3   4   3   2   3   4   5   4   3   4   5   6   5   4   5   6   7   6   5   6   7   8   7   6   7   8   9   8   7   8   9  10   9   8   9  10  
 4   3   2   1   2   3   2   1   0   1   4   3   2   1   2   5   4   3   2   3   6   5   4   3   4   7   6   5   4   5   8   7   6   5   6   9   8   7   6   7  10   9   8   7   8  11  10   9   8   9  
 5   4   3   2   1   4   3   2   1   0   5   4   3   2   1   6   5   4   3   2   7   6   5   4   3   8   7   6   5   4   9   8   7   6   5  10   9   8   7   6  11  10   9   8   7  12  11  10   9   8  
 2   3   4   5   6   1   2   3   4   5   0   1   2   3   4   1   2   3   4   5   2   3   4   5   6   3   4   5   6   7   4   5   6   7   8   5   6   7   8   9   6   7   8   9  10   7   8   9  10  11  
 3   2   3   4   5   2   1   2   3   4   1   0   1   2   3   2   1   2   3   4   3   2   3   4   5   4   3   4   5   6   5   4   5   6   7   6   5   6   7   8   7   6   7   8   9   8   7   8   9  10  
 4   3   2   3   4   3   2   1   2   3   2   1   0   1   2   3   2   1   2   3   4   3   2   3   4   5   4   3   4   5   6   5   4   5   6   7   6   5   6   7   8   7   6   7   8   9   8   7   8   9  
 5   4   3   2   3   4   3   2   1   2   3   2   1   0   1   4   3   2   1   2   5   4   3   2   3   6   5   4   3   4   7   6   5   4   5   8   7   6   5   6   9   8   7   6   7  10   9   8   7   8  
 6   5   4   3   2   5   4   3   2   1   4   3   2   1   0   5   4   3   2   1   6   5   4   3   2   7   6   5   4   3   8   7   6   5   4   9   8   7   6   5  10   9   8   7   6  11  10   9   8   7  
 3   4   5   6   7   2   3   4   5   6   1   2   3   4   5   0   1   2   3   4   1   2   3   4   5   2   3   4   5   6   3   4   5   6   7   4   5   6   7   8   5   6   7   8   9   6   7   8   9  10  
 4   3   4   5   6   3   2   3   4   5   2   1   2   3   4   1   0   1   2   3   2   1   2   3   4   3   2   3   4   5   4   3   4   5   6   5   4   5   6   7   6   5   6   7   8   7   6   7   8   9  
 5   4   3   4   5   4   3   2   3   4   3   2   1   2   3   2   1   0   1   2   3   2   1   2   3   4   3   2   3   4   5   4   3   4   5   6   5   4   5   6   7   6   5   6   7   8   7   6   7   8  
 6   5   4   3   4   5   4   3   2   3   4   3   2   1   2   3   2   1   0   1   4   3   2   1   2   5   4   3   2   3   6   5   4   3   4   7   6   5   4   5   8   7   6   5   6   9   8   7   6   7  
 7   6   5   4   3   6   5   4   3   2   5   4   3   2   1   4   3   2   1   0   5   4   3   2   1   6   5   4   3   2   7   6   5   4   3   8   7   6   5   4   9   8   7   6   5  10   9   8   7   6  
 4   5   6   7   8   3   4   5   6   7   2   3   4   5   6   1   2   3   4   5   0   1   2   3   4   1   2   3   4   5   2   3   4   5   6   3   4   5   6   7   4   5   6   7   8   5   6   7   8   9  
 5   4   5   6   7   4   3   4   5   6   3   2   3   4   5   2   1   2   3   4   1   0   1   2   3   2   1   2   3   4   3   2   3   4   5   4   3   4   5   6   5   4   5   6   7   6   5   6   7   8  
 6   5   4   5   6   5   4   3   4   5   4   3   2   3   4   3   2   1   2   3   2   1   0   1   2   3   2   1   2   3   4   3   2   3   4   5   4   3   4   5   6   5   4   5   6   7   6   5   6   7  
 7   6   5   4   5   6   5   4   3   4   5   4   3   2   3   4   3   2   1   2   3   2   1   0   1   4   3   2   1   2   5   4   3   2   3   6   5   4   3   4   7   6   5   4   5   8   7   6   5   6  
 8   7   6   5   4   7   6   5   4   3   6   5   4   3   2   5   4   3   2   1   4   3   2   1   0   5   4   3   2   1   6   5   4   3   2   7   6   5   4   3   8   7   6   5   4   9   8   7   6   5  
 5   6   7   8   9   4   5   6   7   8   3   4   5   6   7   2   3   4   5   6   1   2   3   4   5   0   1   2   3   4   1   2   3   4   5   2   3   4   5   6   3   4   5   6   7   4   5   6   7   8  
 6   5   6   7   8   5   4   5   6   7   4   3   4   5   6   3   2   3   4   5   2   1   2   3   4   1   0   1   2   3   2   1   2   3   4   3   2   3   4   5   4   3   4   5   6   5   4   5   6   7  
 7   6   5   6   7   6   5   4   5   6   5   4   3   4   5   4   3   2   3   4   3   2   1   2   3   2   1   0   1   2   3   2   1   2   3   4   3   2   3   4   5   4   3   4   5   6   5   4   5   6  
 8   7   6   5   6   7   6   5   4   5   6   5   4   3   4   5   4   3   2   3   4   3   2   1   2   3   2   1   0   1   4   3   2   1   2   5   4   3   2   3   6   5   4   3   4   7   6   5   4   5  
 9   8   7   6   5   8   7   6   5   4   7   6   5   4   3   6   5   4   3   2   5   4   3   2   1   4   3   2   1   0   5   4   3   2   1   6   5   4   3   2   7   6   5   4   3   8   7   6   5   4  
 6   7   8   9  10   5   6   7   8   9   4   5   6   7   8   3   4   5   6   7   2   3   4   5   6   1   2   3   4   5   0   1   2   3   4   1   2   3   4   5   2   3   4   5   6   3   4   5   6   7  
 7   6   7   8   9   6   5   6   7   8   5   4   5   6   7   4   3   4   5   6   3   2   3   4   5   2   1   2   3   4   1   0   1   2   3   2   1   2   3   4   3   2   3   4   5   4   3   4   5   6  
 8   7   6   7   8   7   6   5   6   7   6   5   4   5   6   5   4   3   4   5   4   3   2   3   4   3   2   1   2   3   2   1   0   1   2   3   2   1   2   3   4   3   2   3   4   5   4   3   4   5  
 9   8   7   6   7   8   7   6   5   6   7   6   5   4   5   6   5   4   3   4   5   4   3   2   3   4   3   2   1   2   3   2   1   0   1   4   3   2   1   2   5   4   3   2   3   6   5   4   3   4  
10   9   8   7   6   9   8   7   6   5   8   7   6   5   4   7   6   5   4   3   6   5   4   3   2   5   4   3   2   1   4   3   2   1   0   5   4   3   2   1   6   5   4   3   2   7   6   5   4   3  
 7   8   9  10  11   6   7   8   9  10   5   6   7   8   9   4   5   6   7   8   3   4   5   6   7   2   3   4   5   6   1   2   3   4   5   0   1   2   3   4   1   2   3   4   5   2   3   4   5   6  
 8   7   8   9  10   7   6   7   8   9   6   5   6   7   8   5   4   5   6   7   4   3   4   5   6   3   2   3   4   5   2   1   2   3   4   1   0   1   2   3   2   1   2   3   4   3   2   3   4   5  
 9   8   7   8   9   8   7   6   7   8   7   6   5   6   7   6   5   4   5   6   5   4   3   4   5   4   3   2   3   4   3   2   1   2   3   2   1   0   1   2   3   2   1   2   3   4   3   2   3   4  
10   9   8   7   8   9   8   7   6   7   8   7   6   5   6   7   6   5   4   5   6   5   4   3   4   5   4   3   2   3   4   3   2   1   2   3   2   1   0   1   4   3   2   1   2   5   4   3   2   3  
11  10   9   8   7  10   9   8   7   6   9   8   7   6   5   8   7   6   5   4   7   6   5   4   3   6   5   4   3   2   5   4   3   2   1   4   3   2   1   0   5   4   3   2   1   6   5   4   3   2  
 8   9  10  11  12   7   8   9  10  11   6   7   8   9  10   5   6   7   8   9   4   5   6   7   8   3   4   5   6   7   2   3   4   5   6   1   2   3   4   5   0   1   2   3   4   1   2   3   4   5  
 9   8   9  10  11   8   7   8   9  10   7   6   7   8   9   6   5   6   7   8   5   4   5   6   7   4   3   4   5   6   3   2   3   4   5   2   1   2   3   4   1   0   1   2   3   2   1   2   3   4  
10   9   8   9  10   9   8   7   8   9   8   7   6   7   8   7   6   5   6   7   6   5   4   5   6   5   4   3   4   5   4   3   2   3   4   3   2   1   2   3   2   1   0   1   2   3   2   1   2   3  
11  10   9   8   9  10   9   8   7   8   9   8   7   6   7   8   7   6   5   6   7   6   5   4   5   6   5   4   3   4   5   4   3   2   3   4   3   2   1   2   3   2   1   0   1   4   3   2   1   2  
12  11  10   9   8  11  10   9   8   7  10   9   8   7   6   9   8   7   6   5   8   7   6   5   4   7   6   5   4   3   6   5   4   3   2   5   4   3   2   1   4   3   2   1   0   5   4   3   2   1  
 9  10  11  12  13   8   9  10  11  12   7   8   9  10  11   6   7   8   9  10   5   6   7   8   9   4   5   6   7   8   3   4   5   6   7   2   3   4   5   6   1   2   3   4   5   0   1   2   3   4  
10   9  10  11  12   9   8   9  10  11   8   7   8   9  10   7   6   7   8   9   6   5   6   7   8   5   4   5   6   7   4   3   4   5   6   3   2   3   4   5   2   1   2   3   4   1   0   1   2   3  
11  10   9  10  11  10   9   8   9  10   9   8   7   8   9   8   7   6   7   8   7   6   5   6   7   6   5   4   5   6   5   4   3   4   5   4   3   2   3   4   3   2   1   2   3   2   1   0   1   2  
12  11  10   9  10  11  10   9   8   9  10   9   8   7   8   9   8   7   6   7   8   7   6   5   6   7   6   5   4   5   6   5   4   3   4   5   4   3   2   3   4   3   2   1   2   3   2   1   0   1  
13  12  11  10   9  12  11  10   9   8  11  10   9   8   7  10   9   8   7   6   9   8   7   6   5   8   7   6   5   4   7   6   5   4   3   6   5   4   3   2   5   4   3   2   1   4   3   2   1   0  

 0   5   0   0   0   0   0  50   0   0   0  77   0  54   0   0   0   0   0   0  45  93   0   1   0   0   0   0   0   0   0   0   0   0  75  84   0   0   0   0   0   0   0   0   6   0  64   0   0   0  
95   0  22   0   0  71   0  13   0   0  23  91   0  28   0   0   0   0   0   0  56  57   0  22   0  32   0   0  76   0   0  62   0   0  47   0   0   0   0   0   0   0   0   0   0   0  48   0   0   0  
 0  49   0   0   0   9  98   0  57  62  61  28   0  37  83  41   1  10  37   0  45  92  57  13  36  17  44   6  36  15   0  27  45  21  57   0  57  77   0  52   0  97  88  32   0   0   0  18   0   0  
 0   0   0   0  50   0  19   0   0   0  40   0  27   1  56   0  64   0  66  43   0   0  62  85  44   0  91   0   0   0  81   0   0  35   0  22   0   0   0  19   1   0   0  96  52  54   0   0  81  66  
 0   0   0   2   0   0  15   0  43  48  98   0  95   0  10   0  22   0  27  99   0   0   1   0   1   0  74   0   0   0  16   0   0  13   0   0  24   0   0  35  68   0   0  41   0  61   0   0  52  32  
 0  83  77   0   0   0   0   0   0   0  18  25   0   7  61   0   0  16   0   0  86  48   0  50   0  39   0  82  56  26   0  47   0   0  24   0  33  99   0   0   0  73   7   0   0   0   0  68   0   0  
 0   0  50  57  69   0   0   0  62  72  84   0  70  49  28   0  92   0  95  80   0   0  86  66  53   0  92   0   0   0  78  17   0  67   0  87  82   0   0  52  37   0   0  43  41  57   0   0  90  31  
75  99   0   0   0   0   0   0   0   0   0  49   0  98   0   0   0   0   0   0  95  57   0  22   0   0   0   0   0   0   0  30   0   0  26  19   0   0   0   0   0   0   0   0   5   0  34   0   0   0  
 0   0  14   0  74   0  25   0   0  75  28   0   0   0  80  52  70  97   2  38   0   0  88   0  66   0   0  81   0  93  52   0   9   0   0   0  41  63  75  41  82  50  25  29   0   0   0   1   0   0  
 0   0  35   0  58   0  17   0  35   0   9   0   0   0   8   9  22  54   1  15   0   0  61   0  95   0   0  34   0  26  44  31  37   0   0   0  80  10  86  93  54  99  94  65   0   0   0  97   0   0  
 0   8  58  93  60  13  63   0  49  85   0  66  14  88   8   0  82   7  25  39  50  95  36  39  76  63  47  49   0   0  92   1   0  65  37  67  42  50   0  29  14   0  64  86  80   0   0  41  96  17  
 7  13   7   0   0  45   0  63   0   0  74   0   0  22   0   0   0   0   0   0   5  61   0  96   0  87   0   0  61   0   0  32   0   0  87  98   0   0   0   0   0   0   0   0   0   0  19   0   0   0  
 0   0   0  90   3   0  45   0   0   0  82   0   0  87   0   0  93   0  98  61   0   0  12   0  66   0  14   0   0   0  31   0   0  69   0  64   0   0   0  40  57   0   0  38  34  26   0   0  84  89  
 1  57  56  16   0  21  27  77   0   0  80  79  78   0  99   0  36   0   0   0  20  22  26  88  25  46  10   0   0   0  55  59   0  29  65  52  59   0   0   0   0   0   0   0  77   0  92   0  16  50  
 0   0  17  44  34  92  10   0  46   5  99   0   0  17   0  47  42  99   8   0   0  96  71  41  52  42   5  21   0  27  68   2  13  27   0   0  31   7   4  20  56  89  22  92   0   0   0  52  25   0  
 0   0  46   0   0   0   0   0  74  66   0   0   0   0  43   0  29  98  50   0   0   0  37   0   0   0   0  39   0  64   0   0   1   0   0   0  45  59  64  43  83   3  73  69   0   0   0  83   0   0  
 0   0  37  37  89   0  54   0  35  42  71   0  31  10  49  36   0  48  60  27   0   0  68  16  90   0  70  45   0   0  50  60  95  96   0   0  85   0   0  12  18   0  12  22   0  54   0  32  84  42  
 0   0  75   0   0   5   0   0   2  64   4   0   0   0  14  96   1   0  11   0   0   0  66   0  75  18   0  12   0  37   0  95  43   0   0   0  98  18  55  54   0  29  26  77   0   0   0  21   0   0  
 0   0  81  87  12   0   9   0  33  14  46   0   1   0   5  35  46  48   0  12   0   0   7   0  84   0  10  47   0   0  84   0  60  77   0   0  63   0  74  32  59   0  59  70   0  70   0  90  10  55  
 0   0   0   1  44   0  48   0  23  63  21   0  10   0   0   0  24   0  44   0   0   0  84   0  42   0  82   0   0   0  44   0   0  46   0   0   0   0   0  83  84   0   0  58   0  53   0   0  25  29  
66  66  26   0   0  98   0   5   0   0  43  91   0  51   0   0   0   0   0   0   0  59   0  74   0  55   0   0  65   0   0  39   0   0  13  42   0   0   0   0   0   0   0   0  52   0  25   0   0   0  
66  59  59   0   0  72   0   6   0   0  26  21   0  12  91   0   0   0   0   0   5   0   0  34   0  48   0   0  42   0   0  94   0  95   2  38  91   0   0   0   0   0   0   0   4   0  77   0   0   0  
 0   0  86  33  28   0  51   0  39  94  97   0  70  64  44   7  70  43  40  36   0   0   0  74  40  93  15  82   0   0  54  11  45  67   0   0  18   0   0  36  36   0  90  11   0  30   0  23  57  15  
34   2  36  61   0  28  37  55   0   0  84  49   0  76  35   0  87   0   0   0  76   6   8   0  78  17  76   0  14   0  85  36   0   8  73   1   4   0   0   0   0   0   0   0  84   0  57  65  68  12  
 0   0  40  71  36   0  63   0   8  75  48   0   2  55  26   0  17  37   2  85   0   0  42  40   0   0  24   0   0   0  34  25   0  16   0   0  20   0   0  84  29   0   0  37   8  96   0  13  34  99  
 0  28  41   0   0  61   0   0   0   0  38  15   0  48  15   0   0  96   0   0  50  32   7  27   0   0   0   9  27  36   0  40   0   0  25   0  54   7   0   0   0  47  90   0   0   0   0  84   0   0  
 0   0   3  51  77   0  73   0   0   0  43   0  37  37  21   0  25   0  37  74   0   0  92  43  94   0   0   0   0   0  70  53   0  33   0  45  76   0   0   0  43   0   0  88  54  19   0   0  48  20  
 0   0  37   0   0  12   0   0  67  89  64   0   0   0  80  28  42  45   4   0   0   0   6   0   0  17   0   0   0  87   0   9  87   0   0   0  50  39  95  46   0  78  30  60   0   0   0  91   0   0  
 0  60  83   0   0  54   0   0   0   0   0  44   0   0   0   0   0   0   0   0  74  50   0   5   0  23   0   0   0   0   0  35   0   0  27   0   0   0   0   0   0   0   0   0   0   0   0   0   0   0  
 0   0   1   0   0  76   0   0  37  42   0   0   0   0  63  63   0  34   0   0   0   0   0   0   0  80   0  65   0   0   0   0  48   0   0   0  38  36  21   0   0  11  45   0   0   0   0  21   0   0  
 0   0   0  61   5   0  38   0  62  13  34   0  61  90   2   0  58   0  22  19   0   0  73  88   4   0   3   0   0   0   0   0   0  92   0  70   0   0   0  70   9   0   0  31  99  50   0   0   1  90  
 0  28  14   0   0  46  17   8   0  15   1  83   0  53  82   0  24  85   0   0  90  68  45  16  74  76   1  53  62   0   0   0   0  34   1  84  55  97   0   0   0   0   0   0  48   0  17  26   0   0  
 0   0  13   0   0   0   0   0  56   8   0   0   0   0  91   2  38  41  13   0   0   0  75   0   0   0   0  49   0  91   0   0   0   0   0   0   6  71  78  87   0  80  98   0   0   0   0  88   0   0  
 0   0  19  83   6   0  78   0   0   0  88   0  53  13  32   0  56   0  48  52   0  82  41  42   7   0  55   0   0   0  86   1   0   0  50  39  14   0   0   0  77   0   0  67  97  24   0   0  29  84  
12  65   5   0   0  21   0   6   0   0  35  82   0  42   0   0   0   0   0   0  67  33   0  95   0  49   0   0  49   0   0  84   0  28   0  55   0   0   0   0   0   0   0   0  82   0   1   0   0   0  
79   0   0  15   0   0  99  22   0   0  44  99  34  82   0   0   0   0   0   0  85  31   0  61   0   0  84   0   0   0  92  29   0   8  31   0   0   0   0   0   0   0   0   0  40   0   1   0  40   8  
 0   0  26   0   8  80  41   0  51  73  34   0   0  15  61  92  84   1  89   0   0  84  97  12  24  17  31  31   0  81   0   1  55  49   0   0   0  78  44  18   0   4  57  94   0   0   0  61   0   0  
 0   0  61   0   0  85   0   0  68  12  41   0   0   0  36  26   0  35   0   0   0   0   0   0   0  74   0  63   0  57   0  28  20   0   0   0  44   0   7   0   0  16  24   0   0   0   0  42   0   0  
 0   0   0   0   0   0   0   0  15  80   0   0   0   0   3  93   0  55  85   0   0   0   0   0   0   0   0   3   0  75   0   0  44   0   0   0  31   3   0   1   0  61   2   0   0   0   0  55   0   0  
 0   0  11  44  14   0  60   0  58  60  76   0  58   0  86  14  19  24  54   5   0   0  50   0  44   0   0   4   0   0  89   0  40   0   0   0  42   0  90   0  91   0  80  80   0   0   0   1  93   0  
 0   0   0  20  49   0  21   0  92  70  36   0  23   0   1   7  28   0  40  33   0   0   7   0  97   0  25   0   0   0  98   0   0  30   0   0   0   0   0  33   0   0   0  91   0  25   0   0  71  57  
 0   0   1   0   0  53   0   0  49  17   0   0   0   0  75  33   0  69   0   0   0   0   0   0   0   3   0  47   0  38   0   0  69   0   0   0  89  46  56   0   0   0  68   0   0   0   0  94   0   0  
 0   0  67   0   0  31   0   0  90   3  44   0   0   0   4  28  35  39  32   0   0   0  78   0   0   5   0   1   0  32   0   0  50   0   0   0  66   4  95  74   0  24   0   0   0   0   0  80   0   0  
 0   0   1  86  19   0  58   0  85  41  10   0  12   0   4  84  90  71  85  94   0   0  79   0  99   0  57  54   0   0  28   0   0  73   0   0  22   0   0  91  41   0   0   0   0  70   0  74  43  23  
92   0   0   2   0   0  34  37   0   0  65   0  72  84   0   0   0   0   0   0  88  87   0  83  51   0  51   0   0   0  45  27   0  46  20  88   0   0   0   0   0   0   0   0   0   0  14   0  80  88  
 0   0   0  16  95   0   8   0   0   0   0   0  73   0   0   0  60   0  92  67   0   0  67   0  64   0  53   0   0   0  90   0   0  83   0   0   0   0   0   0   2   0   0  56   0   0   0   0  65  43  
65  86   0   0   0   0   0  36   0   0   0  25   0  56   0   0   0   0   0   0  72   4   0  92   0   0   0   0   0   0   0  71   0   0  83  15   0   0   0   0   0   0   0   0  74   0   0   0   0   0  
 0   0  24   0   0  14   0   0  57  58  15   0   0   0  64  19  33   4  20   0   0   0  77  48  66  39   0  86   0  59   0  22  24   0   0   0  44  97  68   2   0  98  65  90   0   0   0   0   0   0  
 0   0   0  17  36   0  36   0   0   0  16   0  18  61   5   0  42   0  62  95   0   0  16  70  79   0  96   0   0   0  79   0   0  69   0   9   0   0   0   1  66   0   0  20  26  78   0   0   0  50  
 0   0   0  72   1   0  77   0   0   0  17   0   7  65   0   0  47   0  30  38   0   0  53  45  85   0  43   0   0   0  24   0   0  31   0  57   0   0   0   0  23   0   0  27  10  51   0   0  79   0  
